p cnf 237 598
c uncontrollable inputs:
a 9 10 11 12 13 14 15 16 0
c state variables:
a 17 18 19 20 21 22 23 24 25 26 0
c next state variables:
a 27 28 29 30 31 32 33 34 35 36 0
c controllable inputs
d 1 9 10 11 12 13 14 15 16 17 18 19 20 21 22 23 24 25 26 0
d 2 9 10 11 12 13 14 15 16 17 18 19 20 21 22 23 24 25 26 0
d 3 9 10 11 12 13 14 15 16 17 18 19 20 21 22 23 24 25 26 0
d 4 9 10 11 12 13 14 15 16 17 18 19 20 21 22 23 24 25 26 0
d 5 9 10 11 12 13 14 15 16 17 18 19 20 21 22 23 24 25 26 0
d 6 9 10 11 12 13 14 15 16 17 18 19 20 21 22 23 24 25 26 0
d 7 9 10 11 12 13 14 15 16 17 18 19 20 21 22 23 24 25 26 0
d 8 9 10 11 12 13 14 15 16 17 18 19 20 21 22 23 24 25 26 0
c winning region (state)
d 37 17 18 19 20 21 22 23 24 25 26 0
c winning region (next state)
d 38 27 28 29 30 31 32 33 34 35 36 0
c tseitin variables
e 39 40 41 42 43 44 45 46 47 48 49 50 51 52 53 54 55 56 57 58 59 60 61 62 63 64 65 66 67 68 69 70 71 72 73 74 75 76 77 78 79 80 81 82 83 84 85 86 87 88 89 90 91 92 93 94 95 96 97 98 99 100 101 102 103 104 105 106 107 108 109 110 111 112 113 114 115 116 117 118 119 120 121 122 123 124 125 126 127 128 129 130 131 132 133 134 135 136 137 138 139 140 141 142 143 144 145 146 147 148 149 150 151 152 153 154 155 156 157 158 159 160 161 162 163 164 165 166 167 168 169 170 171 172 173 174 175 176 177 178 179 180 181 182 183 184 185 186 187 188 189 190 191 192 193 194 195 196 197 198 199 200 201 202 203 204 205 206 207 208 209 210 211 212 213 214 215 216 217 218 219 220 221 222 223 224 225 226 227 228 229 230 231 232 233 234 235 236 237 0
c clauses:
-39 -35 0
-39 25 0
39 35 -25 0
-40 35 0
-40 -25 0
40 -35 25 0
-41 -39 0
-41 -40 0
41 39 40 0
-42 -36 0
-42 26 0
42 36 -26 0
-43 36 0
-43 -26 0
43 -36 26 0
-44 -42 0
-44 -43 0
44 42 43 0
-45 41 0
-45 44 0
45 -41 -44 0
-46 -27 0
-46 17 0
46 27 -17 0
-47 27 0
-47 -17 0
47 -27 17 0
-48 -46 0
-48 -47 0
48 46 47 0
-49 -28 0
-49 18 0
49 28 -18 0
-50 28 0
-50 -18 0
50 -28 18 0
-51 -49 0
-51 -50 0
51 49 50 0
-52 48 0
-52 51 0
52 -48 -51 0
-53 -29 0
-53 19 0
53 29 -19 0
-54 29 0
-54 -19 0
54 -29 19 0
-55 -53 0
-55 -54 0
55 53 54 0
-56 -30 0
-56 20 0
56 30 -20 0
-57 30 0
-57 -20 0
57 -30 20 0
-58 -56 0
-58 -57 0
58 56 57 0
-59 55 0
-59 58 0
59 -55 -58 0
-60 52 0
-60 59 0
60 -52 -59 0
-61 -31 0
-61 21 0
61 31 -21 0
-62 31 0
-62 -21 0
62 -31 21 0
-63 -61 0
-63 -62 0
63 61 62 0
-64 -32 0
-64 22 0
64 32 -22 0
-65 32 0
-65 -22 0
65 -32 22 0
-66 -64 0
-66 -65 0
66 64 65 0
-67 63 0
-67 66 0
67 -63 -66 0
-68 -33 0
-68 23 0
68 33 -23 0
-69 33 0
-69 -23 0
69 -33 23 0
-70 -68 0
-70 -69 0
70 68 69 0
-71 -34 0
-71 24 0
71 34 -24 0
-72 34 0
-72 -24 0
72 -34 24 0
-73 -71 0
-73 -72 0
73 71 72 0
-74 70 0
-74 73 0
74 -70 -73 0
-75 67 0
-75 74 0
75 -67 -74 0
-76 60 0
-76 75 0
76 -60 -75 0
-77 45 0
-77 76 0
77 -45 -76 0
-78 38 0
-78 -37 0
78 -38 37 0
-79 -38 0
-79 37 0
79 38 -37 0
-80 -78 0
-80 -79 0
80 78 79 0
-81 77 0
-81 -80 0
81 -77 80 0
-82 25 0
-82 17 0
82 -25 -17 0
-83 26 0
-83 17 0
83 -26 -17 0
-84 -2 0
-84 1 0
84 2 -1 0
-85 2 0
-85 -1 0
85 -2 1 0
-86 -84 0
-86 -85 0
86 84 85 0
-87 -3 0
-87 -86 0
87 3 86 0
-88 3 0
-88 86 0
88 -3 -86 0
-89 -87 0
-89 -88 0
89 87 88 0
-90 -4 0
-90 -89 0
90 4 89 0
-91 4 0
-91 89 0
91 -4 -89 0
-92 -90 0
-92 -91 0
92 90 91 0
-93 -5 0
-93 -92 0
93 5 92 0
-94 5 0
-94 92 0
94 -5 -92 0
-95 -93 0
-95 -94 0
95 93 94 0
-96 6 0
-96 -95 0
96 -6 95 0
-97 -6 0
-97 95 0
97 6 -95 0
-98 -96 0
-98 -97 0
98 96 97 0
-99 83 0
-99 98 0
99 -83 -98 0
-100 24 0
-100 17 0
100 -24 -17 0
-101 23 0
-101 17 0
101 -23 -17 0
-102 22 0
-102 17 0
102 -22 -17 0
-103 21 0
-103 17 0
103 -21 -17 0
-104 20 0
-104 17 0
104 -20 -17 0
-105 19 0
-105 17 0
105 -19 -17 0
-106 18 0
-106 17 0
106 -18 -17 0
-107 9 0
-107 106 0
107 -9 -106 0
-108 10 0
-108 107 0
108 -10 -107 0
-109 -105 0
-109 -108 0
109 105 108 0
-110 -10 0
-110 -107 0
110 10 107 0
-111 -109 0
-111 -110 0
111 109 110 0
-112 11 0
-112 111 0
112 -11 -111 0
-113 -104 0
-113 -112 0
113 104 112 0
-114 -11 0
-114 -111 0
114 11 111 0
-115 -113 0
-115 -114 0
115 113 114 0
-116 12 0
-116 115 0
116 -12 -115 0
-117 -103 0
-117 -116 0
117 103 116 0
-118 -12 0
-118 -115 0
118 12 115 0
-119 -117 0
-119 -118 0
119 117 118 0
-120 13 0
-120 119 0
120 -13 -119 0
-121 -102 0
-121 -120 0
121 102 120 0
-122 -13 0
-122 -119 0
122 13 119 0
-123 -121 0
-123 -122 0
123 121 122 0
-124 14 0
-124 123 0
124 -14 -123 0
-125 -101 0
-125 -124 0
125 101 124 0
-126 -14 0
-126 -123 0
126 14 123 0
-127 -125 0
-127 -126 0
127 125 126 0
-128 15 0
-128 127 0
128 -15 -127 0
-129 -100 0
-129 -128 0
129 100 128 0
-130 -15 0
-130 -127 0
130 15 127 0
-131 -129 0
-131 -130 0
131 129 130 0
-132 16 0
-132 131 0
132 -16 -131 0
-133 -16 0
-133 -131 0
133 16 131 0
-134 -132 0
-134 -133 0
134 132 133 0
-135 -99 0
-135 134 0
135 99 -134 0
-136 82 0
-136 135 0
136 -82 -135 0
-137 -82 0
-137 -135 0
137 82 135 0
-138 -136 0
-138 -137 0
138 136 137 0
-139 -35 0
-139 138 0
139 35 -138 0
-140 35 0
-140 -138 0
140 -35 138 0
-141 -139 0
-141 -140 0
141 139 140 0
-142 -82 0
-142 -132 0
142 82 132 0
-143 -142 0
-143 -133 0
143 142 133 0
-144 83 0
-144 -143 0
144 -83 143 0
-145 -83 0
-145 143 0
145 83 -143 0
-146 -144 0
-146 -145 0
146 144 145 0
-147 -146 0
-147 -99 0
147 146 99 0
-148 -36 0
-148 147 0
148 36 -147 0
-149 36 0
-149 -147 0
149 -36 147 0
-150 -148 0
-150 -149 0
150 148 149 0
-151 141 0
-151 150 0
151 -141 -150 0
-152 9 0
-152 -99 0
152 -9 99 0
-153 -106 0
-153 152 0
153 106 -152 0
-154 106 0
-154 -152 0
154 -106 152 0
-155 -153 0
-155 -154 0
155 153 154 0
-156 -28 0
-156 -155 0
156 28 155 0
-157 28 0
-157 155 0
157 -28 -155 0
-158 -156 0
-158 -157 0
158 156 157 0
-159 27 0
-159 158 0
159 -27 -158 0
-160 -108 0
-160 -110 0
160 108 110 0
-161 -99 0
-161 160 0
161 99 -160 0
-162 105 0
-162 161 0
162 -105 -161 0
-163 -105 0
-163 -161 0
163 105 161 0
-164 -162 0
-164 -163 0
164 162 163 0
-165 -29 0
-165 164 0
165 29 -164 0
-166 29 0
-166 -164 0
166 -29 164 0
-167 -165 0
-167 -166 0
167 165 166 0
-168 -112 0
-168 -114 0
168 112 114 0
-169 -99 0
-169 168 0
169 99 -168 0
-170 104 0
-170 169 0
170 -104 -169 0
-171 -104 0
-171 -169 0
171 104 169 0
-172 -170 0
-172 -171 0
172 170 171 0
-173 -30 0
-173 172 0
173 30 -172 0
-174 30 0
-174 -172 0
174 -30 172 0
-175 -173 0
-175 -174 0
175 173 174 0
-176 167 0
-176 175 0
176 -167 -175 0
-177 159 0
-177 176 0
177 -159 -176 0
-178 -116 0
-178 -118 0
178 116 118 0
-179 -99 0
-179 178 0
179 99 -178 0
-180 103 0
-180 179 0
180 -103 -179 0
-181 -103 0
-181 -179 0
181 103 179 0
-182 -180 0
-182 -181 0
182 180 181 0
-183 -31 0
-183 182 0
183 31 -182 0
-184 31 0
-184 -182 0
184 -31 182 0
-185 -183 0
-185 -184 0
185 183 184 0
-186 -120 0
-186 -122 0
186 120 122 0
-187 -99 0
-187 186 0
187 99 -186 0
-188 102 0
-188 187 0
188 -102 -187 0
-189 -102 0
-189 -187 0
189 102 187 0
-190 -188 0
-190 -189 0
190 188 189 0
-191 -32 0
-191 190 0
191 32 -190 0
-192 32 0
-192 -190 0
192 -32 190 0
-193 -191 0
-193 -192 0
193 191 192 0
-194 185 0
-194 193 0
194 -185 -193 0
-195 -124 0
-195 -126 0
195 124 126 0
-196 -99 0
-196 195 0
196 99 -195 0
-197 101 0
-197 196 0
197 -101 -196 0
-198 -101 0
-198 -196 0
198 101 196 0
-199 -197 0
-199 -198 0
199 197 198 0
-200 -33 0
-200 199 0
200 33 -199 0
-201 33 0
-201 -199 0
201 -33 199 0
-202 -200 0
-202 -201 0
202 200 201 0
-203 -128 0
-203 -130 0
203 128 130 0
-204 -99 0
-204 203 0
204 99 -203 0
-205 100 0
-205 204 0
205 -100 -204 0
-206 -100 0
-206 -204 0
206 100 204 0
-207 -205 0
-207 -206 0
207 205 206 0
-208 -34 0
-208 207 0
208 34 -207 0
-209 34 0
-209 -207 0
209 -34 207 0
-210 -208 0
-210 -209 0
210 208 209 0
-211 202 0
-211 210 0
211 -202 -210 0
-212 194 0
-212 211 0
212 -194 -211 0
-213 177 0
-213 212 0
213 -177 -212 0
-214 151 0
-214 213 0
214 -151 -213 0
-215 214 0
-215 79 0
215 -214 -79 0
-216 18 0
-216 105 0
216 -18 -105 0
-217 104 0
-217 216 0
217 -104 -216 0
-218 103 0
-218 217 0
218 -103 -217 0
-219 102 0
-219 218 0
219 -102 -218 0
-220 101 0
-220 219 0
220 -101 -219 0
-221 100 0
-221 220 0
221 -100 -220 0
-222 82 0
-222 221 0
222 -82 -221 0
-223 83 0
-223 222 0
223 -83 -222 0
-224 37 0
-224 223 0
224 -37 -223 0
-225 -26 0
-225 -25 0
225 26 25 0
-226 -18 0
-226 -17 0
226 18 17 0
-227 -20 0
-227 -19 0
227 20 19 0
-228 226 0
-228 227 0
228 -226 -227 0
-229 -22 0
-229 -21 0
229 22 21 0
-230 -24 0
-230 -23 0
230 24 23 0
-231 229 0
-231 230 0
231 -229 -230 0
-232 228 0
-232 231 0
232 -228 -231 0
-233 225 0
-233 232 0
233 -225 -232 0
-234 -37 0
-234 233 0
234 37 -233 0
-235 -224 0
-235 -234 0
235 224 234 0
-236 -215 0
-236 235 0
236 215 -235 0
-237 -81 0
-237 236 0
237 81 -236 0
237 0
